c Random CNF formula
p cnf 200 44
-163 179 -175 0
-17 -62 86 0
144 -118 34 0
-100 158 -58 0
145 -58 -143 0
-63 139 -49 0
-151 -82 61 0
183 168 161 0
-77 -192 -69 0
195 134 138 0
29 71 -98 0
-19 152 -17 0
1 -84 -128 0
36 135 140 0
24 7 -171 0
-59 182 54 0
-184 -114 -115 0
84 -69 96 0
9 36 -33 0
159 123 -59 0
69 -80 -123 0
133 -83 107 0
-54 -169 188 0
46 163 134 0
-106 38 87 0
-146 -53 10 0
-91 -60 -16 0
154 16 73 0
-85 -6 -69 0
93 -30 41 0
-54 29 176 0
69 -177 192 0
-49 -178 -20 0
-160 4 -1 0
80 -184 -186 0
-83 -97 -175 0
99 35 173 0
-91 8 -68 0
91 -5 -125 0
113 -54 135 0
-27 -152 -76 0
176 184 -59 0
33 82 168 0
79 2 140 0
